50
1 0 60
2 0 21
2 1 30
3 0 33
3 1 43
3 2 38
4 0 35
4 1 3
4 2 14
4 3 47
5 0 43
5 1 31
5 2 41
5 3 25
5 4 17
6 0 32
6 1 47
6 2 14
6 3 20
6 4 44
6 5 22
7 0 22
7 1 53
7 2 28
7 3 18
7 4 21
7 5 14
7 6 52
8 0 12
8 1 3
8 2 26
8 3 48
8 4 57
8 5 9
8 6 14
8 7 27
9 0 46
9 1 8
9 2 17
9 3 22
9 4 36
9 5 47
9 6 32
9 7 33
9 8 45
10 0 38
10 1 57
10 2 38
10 3 15
10 4 56
10 5 55
10 6 23
10 7 23
10 8 60
10 9 13
11 0 56
11 1 6
11 2 5
11 3 12
11 4 40
11 5 43
11 6 9
11 7 38
11 8 29
11 9 40
11 10 9
12 0 28
12 1 57
12 2 22
12 3 30
12 4 8
12 5 39
12 6 40
12 7 15
12 8 38
12 9 31
12 10 5
12 11 57
13 0 4
13 1 10
13 2 1
13 3 52
13 4 39
13 5 27
13 6 42
13 7 46
13 8 18
13 9 38
13 10 23
13 11 51
13 12 8
14 0 11
14 1 6
14 2 36
14 3 52
14 4 49
14 5 2
14 6 1
14 7 36
14 8 17
14 9 25
14 10 6
14 11 36
14 12 20
14 13 11
15 0 42
15 1 6
15 2 34
15 3 13
15 4 1
15 5 16
15 6 9
15 7 34
15 8 39
15 9 37
15 10 37
15 11 7
15 12 39
15 13 49
15 14 23
16 0 39
16 1 1
16 2 35
16 3 33
16 4 10
16 5 50
16 6 58
16 7 1
16 8 58
16 9 42
16 10 22
16 11 10
16 12 47
16 13 23
16 14 2
16 15 47
17 0 8
17 1 41
17 2 56
17 3 27
17 4 27
17 5 57
17 6 7
17 7 6
17 8 55
17 9 52
17 10 12
17 11 18
17 12 50
17 13 22
17 14 21
17 15 12
17 16 4
18 0 46
18 1 53
18 2 44
18 3 54
18 4 26
18 5 42
18 6 1
18 7 16
18 8 47
18 9 48
18 10 17
18 11 18
18 12 13
18 13 44
18 14 41
18 15 36
18 16 20
18 17 46
19 0 55
19 1 41
19 2 38
19 3 1
19 4 31
19 5 23
19 6 28
19 7 1
19 8 59
19 9 27
19 10 49
19 11 19
19 12 34
19 13 25
19 14 29
19 15 1
19 16 52
19 17 22
19 18 31
20 0 34
20 1 57
20 2 32
20 3 56
20 4 2
20 5 36
20 6 32
20 7 21
20 8 43
20 9 30
20 10 46
20 11 40
20 12 55
20 13 9
20 14 22
20 15 15
20 16 5
20 17 11
20 18 37
20 19 12
21 0 44
21 1 44
21 2 49
21 3 29
21 4 50
21 5 58
21 6 56
21 7 12
21 8 36
21 9 46
21 10 36
21 11 6
21 12 50
21 13 27
21 14 7
21 15 19
21 16 18
21 17 47
21 18 49
21 19 51
21 20 41
22 0 49
22 1 44
22 2 3
22 3 15
22 4 7
22 5 23
22 6 32
22 7 9
22 8 41
22 9 23
22 10 58
22 11 5
22 12 29
22 13 55
22 14 49
22 15 40
22 16 13
22 17 20
22 18 57
22 19 40
22 20 13
22 21 33
23 0 33
23 1 19
23 2 5
23 3 60
23 4 58
23 5 46
23 6 41
23 7 4
23 8 26
23 9 55
23 10 47
23 11 26
23 12 36
23 13 1
23 14 5
23 15 56
23 16 18
23 17 33
23 18 46
23 19 35
23 20 17
23 21 42
23 22 31
24 0 51
24 1 41
24 2 6
24 3 54
24 4 33
24 5 16
24 6 45
24 7 30
24 8 57
24 9 57
24 10 22
24 11 50
24 12 42
24 13 11
24 14 31
24 15 38
24 16 44
24 17 56
24 18 12
24 19 30
24 20 37
24 21 33
24 22 53
24 23 54
25 0 32
25 1 48
25 2 6
25 3 40
25 4 5
25 5 38
25 6 2
25 7 52
25 8 39
25 9 42
25 10 52
25 11 46
25 12 48
25 13 27
25 14 34
25 15 40
25 16 15
25 17 35
25 18 45
25 19 25
25 20 9
25 21 1
25 22 23
25 23 57
25 24 43
26 0 38
26 1 42
26 2 26
26 3 40
26 4 41
26 5 45
26 6 29
26 7 47
26 8 8
26 9 60
26 10 41
26 11 39
26 12 57
26 13 18
26 14 42
26 15 17
26 16 44
26 17 2
26 18 6
26 19 24
26 20 8
26 21 10
26 22 4
26 23 30
26 24 13
26 25 33
27 0 42
27 1 40
27 2 34
27 3 53
27 4 17
27 5 13
27 6 48
27 7 52
27 8 52
27 9 33
27 10 45
27 11 39
27 12 11
27 13 24
27 14 39
27 15 41
27 16 27
27 17 50
27 18 53
27 19 19
27 20 46
27 21 27
27 22 13
27 23 57
27 24 13
27 25 42
27 26 32
28 0 37
28 1 42
28 2 16
28 3 38
28 4 5
28 5 12
28 6 47
28 7 29
28 8 8
28 9 60
28 10 43
28 11 56
28 12 23
28 13 12
28 14 43
28 15 51
28 16 44
28 17 13
28 18 3
28 19 23
28 20 50
28 21 21
28 22 55
28 23 24
28 24 29
28 25 42
28 26 37
28 27 38
29 0 7
29 1 47
29 2 59
29 3 59
29 4 3
29 5 36
29 6 33
29 7 57
29 8 49
29 9 20
29 10 16
29 11 20
29 12 47
29 13 42
29 14 50
29 15 17
29 16 2
29 17 28
29 18 1
29 19 53
29 20 7
29 21 3
29 22 16
29 23 24
29 24 11
29 25 60
29 26 48
29 27 1
29 28 38
30 0 35
30 1 47
30 2 51
30 3 3
30 4 15
30 5 21
30 6 16
30 7 32
30 8 16
30 9 39
30 10 5
30 11 14
30 12 59
30 13 51
30 14 58
30 15 51
30 16 30
30 17 14
30 18 15
30 19 37
30 20 40
30 21 35
30 22 53
30 23 45
30 24 52
30 25 24
30 26 17
30 27 27
30 28 35
30 29 52
31 0 19
31 1 56
31 2 13
31 3 29
31 4 36
31 5 19
31 6 16
31 7 42
31 8 4
31 9 58
31 10 6
31 11 9
31 12 5
31 13 47
31 14 45
31 15 20
31 16 1
31 17 39
31 18 29
31 19 33
31 20 43
31 21 53
31 22 12
31 23 44
31 24 30
31 25 27
31 26 51
31 27 26
31 28 28
31 29 16
31 30 19
32 0 59
32 1 16
32 2 52
32 3 35
32 4 42
32 5 49
32 6 19
32 7 7
32 8 32
32 9 18
32 10 59
32 11 45
32 12 45
32 13 38
32 14 46
32 15 32
32 16 20
32 17 11
32 18 45
32 19 9
32 20 17
32 21 32
32 22 22
32 23 18
32 24 55
32 25 19
32 26 40
32 27 43
32 28 60
32 29 40
32 30 5
32 31 48
33 0 19
33 1 43
33 2 4
33 3 15
33 4 42
33 5 6
33 6 13
33 7 4
33 8 56
33 9 38
33 10 51
33 11 34
33 12 11
33 13 22
33 14 14
33 15 45
33 16 18
33 17 47
33 18 51
33 19 45
33 20 42
33 21 53
33 22 23
33 23 22
33 24 35
33 25 23
33 26 28
33 27 3
33 28 13
33 29 20
33 30 3
33 31 26
33 32 16
34 0 45
34 1 14
34 2 48
34 3 58
34 4 4
34 5 56
34 6 46
34 7 28
34 8 47
34 9 26
34 10 58
34 11 9
34 12 21
34 13 56
34 14 53
34 15 20
34 16 2
34 17 38
34 18 45
34 19 47
34 20 41
34 21 53
34 22 28
34 23 6
34 24 29
34 25 27
34 26 43
34 27 34
34 28 59
34 29 57
34 30 51
34 31 24
34 32 5
34 33 3
35 0 10
35 1 9
35 2 48
35 3 56
35 4 45
35 5 3
35 6 60
35 7 60
35 8 55
35 9 14
35 10 26
35 11 9
35 12 50
35 13 9
35 14 30
35 15 45
35 16 12
35 17 3
35 18 1
35 19 20
35 20 38
35 21 41
35 22 38
35 23 35
35 24 20
35 25 56
35 26 38
35 27 5
35 28 19
35 29 18
35 30 30
35 31 7
35 32 8
35 33 57
35 34 14
36 0 11
36 1 44
36 2 53
36 3 25
36 4 13
36 5 12
36 6 44
36 7 40
36 8 39
36 9 19
36 10 60
36 11 33
36 12 43
36 13 11
36 14 34
36 15 33
36 16 42
36 17 23
36 18 14
36 19 29
36 20 12
36 21 33
36 22 20
36 23 15
36 24 11
36 25 7
36 26 34
36 27 17
36 28 47
36 29 38
36 30 58
36 31 34
36 32 5
36 33 4
36 34 20
36 35 30
37 0 3
37 1 60
37 2 41
37 3 43
37 4 39
37 5 19
37 6 29
37 7 41
37 8 45
37 9 8
37 10 45
37 11 52
37 12 18
37 13 2
37 14 21
37 15 38
37 16 49
37 17 36
37 18 58
37 19 4
37 20 19
37 21 60
37 22 36
37 23 30
37 24 9
37 25 15
37 26 41
37 27 42
37 28 21
37 29 11
37 30 54
37 31 26
37 32 35
37 33 8
37 34 40
37 35 18
37 36 33
38 0 24
38 1 35
38 2 58
38 3 45
38 4 21
38 5 21
38 6 59
38 7 42
38 8 11
38 9 7
38 10 12
38 11 8
38 12 34
38 13 2
38 14 5
38 15 50
38 16 31
38 17 38
38 18 36
38 19 54
38 20 36
38 21 20
38 22 33
38 23 55
38 24 54
38 25 2
38 26 31
38 27 2
38 28 37
38 29 43
38 30 33
38 31 3
38 32 14
38 33 28
38 34 28
38 35 10
38 36 21
38 37 20
39 0 39
39 1 40
39 2 1
39 3 7
39 4 4
39 5 50
39 6 54
39 7 41
39 8 25
39 9 10
39 10 30
39 11 31
39 12 37
39 13 14
39 14 41
39 15 49
39 16 35
39 17 50
39 18 56
39 19 9
39 20 36
39 21 35
39 22 57
39 23 20
39 24 24
39 25 54
39 26 54
39 27 26
39 28 39
39 29 57
39 30 16
39 31 45
39 32 48
39 33 1
39 34 51
39 35 16
39 36 21
39 37 34
39 38 47
40 0 55
40 1 44
40 2 53
40 3 25
40 4 44
40 5 44
40 6 47
40 7 23
40 8 38
40 9 5
40 10 11
40 11 14
40 12 24
40 13 28
40 14 19
40 15 33
40 16 15
40 17 4
40 18 53
40 19 23
40 20 50
40 21 43
40 22 23
40 23 17
40 24 44
40 25 1
40 26 36
40 27 24
40 28 44
40 29 51
40 30 51
40 31 31
40 32 29
40 33 36
40 34 27
40 35 49
40 36 13
40 37 36
40 38 29
40 39 46
41 0 42
41 1 42
41 2 60
41 3 25
41 4 41
41 5 14
41 6 10
41 7 13
41 8 26
41 9 24
41 10 40
41 11 54
41 12 57
41 13 8
41 14 2
41 15 60
41 16 17
41 17 48
41 18 7
41 19 16
41 20 53
41 21 23
41 22 57
41 23 57
41 24 48
41 25 60
41 26 15
41 27 44
41 28 20
41 29 47
41 30 33
41 31 35
41 32 22
41 33 44
41 34 11
41 35 11
41 36 34
41 37 46
41 38 41
41 39 28
41 40 58
42 0 18
42 1 47
42 2 21
42 3 55
42 4 55
42 5 42
42 6 53
42 7 17
42 8 8
42 9 5
42 10 20
42 11 8
42 12 15
42 13 47
42 14 54
42 15 49
42 16 38
42 17 24
42 18 1
42 19 43
42 20 9
42 21 16
42 22 37
42 23 16
42 24 37
42 25 22
42 26 42
42 27 4
42 28 9
42 29 8
42 30 59
42 31 55
42 32 7
42 33 29
42 34 42
42 35 38
42 36 7
42 37 13
42 38 39
42 39 20
42 40 45
42 41 45
43 0 10
43 1 54
43 2 34
43 3 50
43 4 30
43 5 58
43 6 20
43 7 45
43 8 51
43 9 14
43 10 17
43 11 3
43 12 7
43 13 13
43 14 17
43 15 49
43 16 1
43 17 41
43 18 57
43 19 14
43 20 60
43 21 20
43 22 6
43 23 37
43 24 25
43 25 39
43 26 12
43 27 27
43 28 42
43 29 42
43 30 38
43 31 56
43 32 25
43 33 28
43 34 47
43 35 6
43 36 42
43 37 5
43 38 35
43 39 42
43 40 5
43 41 52
43 42 53
44 0 12
44 1 13
44 2 9
44 3 36
44 4 24
44 5 28
44 6 15
44 7 44
44 8 10
44 9 43
44 10 2
44 11 43
44 12 39
44 13 51
44 14 5
44 15 28
44 16 11
44 17 27
44 18 13
44 19 22
44 20 59
44 21 13
44 22 56
44 23 57
44 24 54
44 25 33
44 26 15
44 27 45
44 28 11
44 29 41
44 30 35
44 31 10
44 32 53
44 33 16
44 34 59
44 35 45
44 36 28
44 37 6
44 38 50
44 39 29
44 40 26
44 41 43
44 42 37
44 43 9
45 0 25
45 1 39
45 2 32
45 3 25
45 4 58
45 5 50
45 6 9
45 7 36
45 8 42
45 9 36
45 10 6
45 11 15
45 12 53
45 13 45
45 14 46
45 15 40
45 16 28
45 17 5
45 18 19
45 19 17
45 20 5
45 21 20
45 22 35
45 23 39
45 24 43
45 25 4
45 26 41
45 27 55
45 28 48
45 29 21
45 30 16
45 31 41
45 32 10
45 33 10
45 34 57
45 35 12
45 36 6
45 37 39
45 38 8
45 39 23
45 40 11
45 41 55
45 42 21
45 43 20
45 44 54
46 0 55
46 1 60
46 2 53
46 3 12
46 4 39
46 5 50
46 6 45
46 7 24
46 8 34
46 9 36
46 10 22
46 11 8
46 12 59
46 13 5
46 14 58
46 15 8
46 16 9
46 17 47
46 18 2
46 19 23
46 20 53
46 21 38
46 22 60
46 23 32
46 24 59
46 25 6
46 26 38
46 27 48
46 28 12
46 29 36
46 30 46
46 31 52
46 32 6
46 33 20
46 34 10
46 35 12
46 36 3
46 37 36
46 38 48
46 39 2
46 40 35
46 41 28
46 42 29
46 43 54
46 44 26
46 45 17
47 0 9
47 1 25
47 2 15
47 3 23
47 4 52
47 5 42
47 6 45
47 7 60
47 8 29
47 9 40
47 10 35
47 11 9
47 12 29
47 13 1
47 14 38
47 15 11
47 16 22
47 17 45
47 18 6
47 19 5
47 20 55
47 21 26
47 22 40
47 23 47
47 24 49
47 25 40
47 26 54
47 27 12
47 28 35
47 29 18
47 30 17
47 31 25
47 32 59
47 33 33
47 34 46
47 35 39
47 36 8
47 37 52
47 38 41
47 39 37
47 40 8
47 41 26
47 42 21
47 43 29
47 44 45
47 45 24
47 46 56
48 0 44
48 1 42
48 2 23
48 3 58
48 4 19
48 5 30
48 6 53
48 7 1
48 8 3
48 9 45
48 10 22
48 11 21
48 12 21
48 13 34
48 14 38
48 15 9
48 16 24
48 17 24
48 18 18
48 19 13
48 20 26
48 21 30
48 22 36
48 23 54
48 24 2
48 25 41
48 26 2
48 27 40
48 28 17
48 29 18
48 30 27
48 31 41
48 32 11
48 33 26
48 34 28
48 35 18
48 36 53
48 37 43
48 38 26
48 39 10
48 40 34
48 41 31
48 42 30
48 43 29
48 44 59
48 45 6
48 46 5
48 47 47
49 0 49
49 1 9
49 2 14
49 3 57
49 4 45
49 5 43
49 6 28
49 7 22
49 8 44
49 9 34
49 10 57
49 11 47
49 12 38
49 13 29
49 14 31
49 15 53
49 16 31
49 17 44
49 18 22
49 19 46
49 20 13
49 21 9
49 22 52
49 23 4
49 24 51
49 25 23
49 26 37
49 27 54
49 28 26
49 29 3
49 30 39
49 31 27
49 32 51
49 33 12
49 34 34
49 35 30
49 36 42
49 37 6
49 38 52
49 39 13
49 40 59
49 41 17
49 42 50
49 43 20
49 44 24
49 45 30
49 46 45
49 47 12
49 48 49
